2025-10-20 23:12:32,779 - INFO - 📌 第一个 epoch：默认所有模块使用 checkpoint
2025-10-20 23:12:36,533 - INFO - Epoch 1 completed in 3.786386 seconds
2025-10-20 23:12:37,662 - INFO - torch.cuda.max_memory_reserved() : 4.37890625
2025-10-20 23:12:40,693 - INFO - 
[🔁 拟合反向传播时间模型]
2025-10-20 23:12:40,694 - INFO - 总反向传播时间: 3.010533s
2025-10-20 23:12:40,694 - INFO - 拟合模型: backward_total ≈ 2 × (A + B) + b
2025-10-20 23:12:40,694 - INFO - A = 2.205385, B = 0.222052, b = 0.583096s
2025-10-20 23:12:40,719 - INFO - Set parameter LicenseID to value 2706656
2025-10-20 23:12:40,723 - INFO - Set parameter LogToConsole to value 1
2025-10-20 23:12:40,723 - INFO - Set parameter LogFile to value ""
2025-10-20 23:12:40,723 - INFO - Set parameter Threads to value 12
2025-10-20 23:12:40,724 - INFO - Set parameter TimeLimit to value 3600
2025-10-20 23:12:40,724 - INFO - Set parameter OptimalityTol to value 0.0001
2025-10-20 23:12:40,724 - INFO - Set parameter IntFeasTol to value 1e-05
2025-10-20 23:12:40,724 - INFO - Set parameter StartNodeLimit to value 10000000
2025-10-20 23:12:40,832 - INFO - Set parameter TimeLimit to value 3600
2025-10-20 23:12:40,833 - INFO - 
2025-10-20 23:12:40,833 - INFO - 
2025-10-20 23:12:40,833 - INFO - Restarting solve
2025-10-20 23:12:40,833 - INFO - 
2025-10-20 23:12:40,833 - INFO - 
2025-10-20 23:12:40,836 - INFO - Gurobi Optimizer version 12.0.3 build v12.0.3rc0 (linux64 - "Ubuntu 20.04.6 LTS")
2025-10-20 23:12:40,836 - INFO - 
2025-10-20 23:12:40,836 - INFO - CPU model: Intel(R) Xeon(R) Platinum 8260 CPU @ 2.40GHz, instruction set [SSE2|AVX|AVX2|AVX512]
2025-10-20 23:12:40,836 - INFO - Thread count: 48 physical cores, 96 logical processors, using up to 12 threads
2025-10-20 23:12:40,836 - INFO - 
2025-10-20 23:12:40,836 - INFO - Non-default parameters:
2025-10-20 23:12:40,836 - INFO - TimeLimit  3600
2025-10-20 23:12:40,836 - INFO - OptimalityTol  0.0001
2025-10-20 23:12:40,836 - INFO - StartNodeLimit  10000000
2025-10-20 23:12:40,836 - INFO - Threads  12
2025-10-20 23:12:40,836 - INFO - 
2025-10-20 23:12:40,836 - INFO - Optimize a model with 5603 rows, 3584 columns and 15200 nonzeros
2025-10-20 23:12:40,837 - INFO - Model fingerprint: 0x8c1c3e9a
2025-10-20 23:12:40,837 - INFO - Variable types: 1024 continuous, 2560 integer (2560 binary)
2025-10-20 23:12:40,837 - INFO - Coefficient statistics:
2025-10-20 23:12:40,837 - INFO -   Matrix range     [1e+00, 2e+15]
2025-10-20 23:12:40,837 - INFO -   Objective range  [7e+04, 6e+05]
2025-10-20 23:12:40,837 - INFO -   Bounds range     [1e+00, 1e+16]
2025-10-20 23:12:40,837 - INFO -   RHS range        [1e+00, 1e+16]
2025-10-20 23:12:40,837 - INFO - Warning: Model contains large matrix coefficient range
2025-10-20 23:12:40,837 - INFO - Warning: Model contains large rhs
2025-10-20 23:12:40,837 - INFO - Warning: Model contains large bounds
2025-10-20 23:12:40,837 - INFO -          Consider reformulating model or setting NumericFocus parameter
2025-10-20 23:12:40,837 - INFO -          to avoid numerical issues.
2025-10-20 23:12:40,858 - INFO - Presolve removed 4283 rows and 1964 columns
2025-10-20 23:12:40,858 - INFO - Presolve time: 0.02s
2025-10-20 23:12:40,858 - INFO - Presolved: 1320 rows, 1620 columns, 4514 nonzeros
2025-10-20 23:12:40,860 - INFO - Variable types: 0 continuous, 1620 integer (1095 binary)
2025-10-20 23:12:40,882 - INFO - 
2025-10-20 23:12:40,883 - INFO - Root relaxation: objective 9.794230e+06, 455 iterations, 0.01 seconds (0.00 work units)
2025-10-20 23:12:40,898 - INFO - 
2025-10-20 23:12:40,898 - INFO -     Nodes    |    Current Node    |     Objective Bounds      |     Work
2025-10-20 23:12:40,898 - INFO -  Expl Unexpl |  Obj  Depth IntInf | Incumbent    BestBd   Gap | It/Node Time
2025-10-20 23:12:40,898 - INFO - 
2025-10-20 23:12:40,898 - INFO -      0     0 9794230.00    0   10          - 9794230.00      -     -    0s
2025-10-20 23:12:40,928 - INFO - H    0     0                    1.469134e+07 9794230.00  33.3%     -    0s
2025-10-20 23:12:40,930 - INFO -      0     0 9794230.00    0    4 1.4691e+07 9794230.00  33.3%     -    0s
2025-10-20 23:12:40,949 - INFO - *    0     0               0    9794230.0000 9794230.00  0.00%     -    0s
2025-10-20 23:12:40,950 - INFO - 
2025-10-20 23:12:40,950 - INFO - Cutting planes:
2025-10-20 23:12:40,950 - INFO -   Cover: 14
2025-10-20 23:12:40,951 - INFO - 
2025-10-20 23:12:40,951 - INFO - Explored 1 nodes (619 simplex iterations) in 0.11 seconds (0.05 work units)
2025-10-20 23:12:40,951 - INFO - Thread count was 12 (of 96 available processors)
2025-10-20 23:12:40,951 - INFO - 
2025-10-20 23:12:40,951 - INFO - Solution count 2: 9.79423e+06 1.46913e+07 
2025-10-20 23:12:40,951 - INFO - 
2025-10-20 23:12:40,951 - INFO - Optimal solution found (tolerance 1.00e-04)
2025-10-20 23:12:40,951 - INFO - Best objective 9.794230000000e+06, best bound 9.794230000000e+06, gap 0.0000%
2025-10-20 23:12:40,967 - INFO - 规划前的显存GB：12.0
2025-10-20 23:12:40,967 - INFO - 规划后的显存GB：9.555042743682861
2025-10-20 23:12:40,967 - INFO - ✅ 最优策略：[1, 1, 1, 1, 1, 1, 1, 1, 1, 1, 1, 1, 1, 1, 1, 1]
2025-10-20 23:12:40,967 - INFO - 📌 checkpoint 的欧氏长度:, []
2025-10-20 23:12:40,967 - INFO - 📌 checkpoint 的余弦长度:, []
2025-10-20 23:12:40,967 - INFO - 💾 最终显存峰值：%.2f MB % 8692.373695373535
2025-10-20 23:12:40,968 - INFO - Epoch 2 completed in 3.305168 seconds
2025-10-20 23:12:40,968 - INFO - torch.cuda.max_memory_reserved() : 4.37890625
2025-10-20 23:12:43,227 - INFO - Epoch 3 completed in 2.258857 seconds
2025-10-20 23:12:43,228 - INFO - 
====================== [第1个 Epoch 收集统计数据] ======================
2025-10-20 23:12:43,228 - INFO - 
🔍 EUCLIDEAN modules:
2025-10-20 23:12:43,228 - INFO - [Shapelet  40] forward_avg=0.004132s over 12 calls | peak=343.57MB | final=0.00MB
2025-10-20 23:12:43,228 - INFO - [Shapelet  80] forward_avg=0.004371s over 12 calls | peak=601.19MB | final=0.00MB
2025-10-20 23:12:43,228 - INFO - [Shapelet 121] forward_avg=0.005201s over 12 calls | peak=791.72MB | final=0.00MB
2025-10-20 23:12:43,229 - INFO - [Shapelet 161] forward_avg=0.005656s over 12 calls | peak=905.43MB | final=0.00MB
2025-10-20 23:12:43,229 - INFO - [Shapelet 202] forward_avg=0.005728s over 12 calls | peak=946.48MB | final=0.00MB
2025-10-20 23:12:43,229 - INFO - [Shapelet 242] forward_avg=0.005494s over 12 calls | peak=915.59MB | final=0.00MB
2025-10-20 23:12:43,229 - INFO - [Shapelet 283] forward_avg=0.004730s over 12 calls | peak=810.62MB | final=0.00MB
2025-10-20 23:12:43,229 - INFO - [Shapelet 324] forward_avg=0.004405s over 12 calls | peak=628.61MB | final=0.00MB
2025-10-20 23:12:43,229 - INFO - 
🔍 COSINE modules:
2025-10-20 23:12:43,229 - INFO - [Shapelet  40] forward_avg=0.002260s over 12 calls | peak=220.75MB | final=0.00MB
2025-10-20 23:12:43,229 - INFO - [Shapelet  80] forward_avg=0.002438s over 12 calls | peak=390.83MB | final=0.00MB
2025-10-20 23:12:43,229 - INFO - [Shapelet 121] forward_avg=0.002738s over 12 calls | peak=515.69MB | final=0.00MB
2025-10-20 23:12:43,229 - INFO - [Shapelet 161] forward_avg=0.002980s over 12 calls | peak=589.82MB | final=0.00MB
2025-10-20 23:12:43,230 - INFO - [Shapelet 202] forward_avg=0.003241s over 12 calls | peak=615.21MB | final=0.00MB
2025-10-20 23:12:43,230 - INFO - [Shapelet 242] forward_avg=0.003065s over 12 calls | peak=592.28MB | final=0.00MB
2025-10-20 23:12:43,230 - INFO - [Shapelet 283] forward_avg=0.002541s over 12 calls | peak=520.11MB | final=0.00MB
2025-10-20 23:12:43,230 - INFO - [Shapelet 324] forward_avg=0.002279s over 12 calls | peak=396.44MB | final=0.00MB
2025-10-20 23:12:43,230 - INFO - 
🔍 CROSS modules:
2025-10-20 23:12:43,230 - INFO - [Shapelet  40] forward_avg=0.003226s over 12 calls
2025-10-20 23:12:43,230 - INFO - [Shapelet  80] forward_avg=0.000727s over 12 calls
2025-10-20 23:12:43,230 - INFO - [Shapelet 121] forward_avg=0.000711s over 12 calls
2025-10-20 23:12:43,230 - INFO - [Shapelet 161] forward_avg=0.000874s over 12 calls
2025-10-20 23:12:43,231 - INFO - [Shapelet 202] forward_avg=0.000889s over 12 calls
2025-10-20 23:12:43,231 - INFO - [Shapelet 242] forward_avg=0.000865s over 12 calls
2025-10-20 23:12:43,231 - INFO - [Shapelet 283] forward_avg=0.000929s over 12 calls
2025-10-20 23:12:43,231 - INFO - [Shapelet 324] forward_avg=0.001032s over 12 calls
2025-10-20 23:12:43,231 - INFO - 
💾 模型第一次反向传播阶段的显存峰值（所有模块中的最大值）: 8544.94 MB
2025-10-20 23:12:43,231 - INFO - 
💾 模型初始显存: 23.05 MB
2025-10-20 23:12:43,231 - INFO - =======================================================================

2025-10-20 23:12:43,232 - INFO - torch.cuda.max_memory_reserved() : 9.25
2025-10-20 23:12:45,436 - INFO - Epoch 4 completed in 2.203030 seconds
2025-10-20 23:12:45,436 - INFO - torch.cuda.max_memory_reserved() : 9.25
2025-10-20 23:12:47,739 - INFO - Epoch 5 completed in 2.300731 seconds
2025-10-20 23:12:47,740 - INFO - torch.cuda.max_memory_reserved() : 9.25
2025-10-20 23:12:50,100 - INFO - Epoch 6 completed in 2.358877 seconds
2025-10-20 23:12:50,100 - INFO - torch.cuda.max_memory_reserved() : 9.25
2025-10-20 23:12:52,556 - INFO - Epoch 7 completed in 2.455355 seconds
2025-10-20 23:12:52,557 - INFO - torch.cuda.max_memory_reserved() : 9.25
2025-10-20 23:12:54,913 - INFO - Epoch 8 completed in 2.355614 seconds
2025-10-20 23:12:54,913 - INFO - torch.cuda.max_memory_reserved() : 9.25
2025-10-20 23:12:57,174 - INFO - Epoch 9 completed in 2.260186 seconds
2025-10-20 23:12:57,175 - INFO - torch.cuda.max_memory_reserved() : 9.251953125
2025-10-20 23:12:59,389 - INFO - Epoch 10 completed in 2.213708 seconds
2025-10-20 23:13:00,472 - INFO - torch.cuda.max_memory_reserved() : 9.251953125
2025-10-20 23:13:00,473 - INFO - !!!采用策略后的几个epoch 平均时间:2.3007946610450745
2025-10-20 23:13:00,473 - INFO - 



2025-10-21 10:03:37,595 - INFO - 📌 第一个 epoch：默认所有模块使用 checkpoint
2025-10-21 10:03:40,897 - INFO - Epoch 1 completed in 3.309443 seconds
2025-10-21 10:03:41,957 - INFO - torch.cuda.max_memory_reserved() : 4.37890625
2025-10-21 10:03:44,741 - INFO - 
[🔁 拟合反向传播时间模型]
2025-10-21 10:03:44,741 - INFO - 总反向传播时间: 2.758870s
2025-10-21 10:03:44,741 - INFO - 拟合模型: backward_total ≈ 2 × (A + B) + b
2025-10-21 10:03:44,741 - INFO - A = 2.108732, B = 0.201946, b = 0.448192s
2025-10-21 10:03:44,765 - INFO - Set parameter LicenseID to value 2706656
2025-10-21 10:03:44,770 - INFO - Set parameter LogToConsole to value 1
2025-10-21 10:03:44,770 - INFO - Set parameter LogFile to value ""
2025-10-21 10:03:44,770 - INFO - Set parameter Threads to value 12
2025-10-21 10:03:44,770 - INFO - Set parameter TimeLimit to value 3600
2025-10-21 10:03:44,771 - INFO - Set parameter OptimalityTol to value 0.0001
2025-10-21 10:03:44,771 - INFO - Set parameter IntFeasTol to value 1e-05
2025-10-21 10:03:44,771 - INFO - Set parameter StartNodeLimit to value 10000000
2025-10-21 10:03:44,823 - INFO - Set parameter TimeLimit to value 3600
2025-10-21 10:03:44,823 - INFO - 
2025-10-21 10:03:44,823 - INFO - 
2025-10-21 10:03:44,823 - INFO - Restarting solve
2025-10-21 10:03:44,823 - INFO - 
2025-10-21 10:03:44,823 - INFO - 
2025-10-21 10:03:44,825 - INFO - Gurobi Optimizer version 12.0.3 build v12.0.3rc0 (linux64 - "Ubuntu 20.04.6 LTS")
2025-10-21 10:03:44,825 - INFO - 
2025-10-21 10:03:44,825 - INFO - CPU model: Intel(R) Xeon(R) Platinum 8260 CPU @ 2.40GHz, instruction set [SSE2|AVX|AVX2|AVX512]
2025-10-21 10:03:44,825 - INFO - Thread count: 48 physical cores, 96 logical processors, using up to 12 threads
2025-10-21 10:03:44,825 - INFO - 
2025-10-21 10:03:44,825 - INFO - Non-default parameters:
2025-10-21 10:03:44,825 - INFO - TimeLimit  3600
2025-10-21 10:03:44,825 - INFO - OptimalityTol  0.0001
2025-10-21 10:03:44,825 - INFO - StartNodeLimit  10000000
2025-10-21 10:03:44,825 - INFO - Threads  12
2025-10-21 10:03:44,825 - INFO - 
2025-10-21 10:03:44,825 - INFO - Optimize a model with 5603 rows, 3584 columns and 15200 nonzeros
2025-10-21 10:03:44,825 - INFO - Model fingerprint: 0x3047650d
2025-10-21 10:03:44,826 - INFO - Variable types: 1024 continuous, 2560 integer (2560 binary)
2025-10-21 10:03:44,826 - INFO - Coefficient statistics:
2025-10-21 10:03:44,826 - INFO -   Matrix range     [1e+00, 2e+15]
2025-10-21 10:03:44,826 - INFO -   Objective range  [6e+04, 6e+05]
2025-10-21 10:03:44,826 - INFO -   Bounds range     [1e+00, 1e+16]
2025-10-21 10:03:44,826 - INFO -   RHS range        [1e+00, 1e+16]
2025-10-21 10:03:44,826 - INFO - Warning: Model contains large matrix coefficient range
2025-10-21 10:03:44,826 - INFO - Warning: Model contains large rhs
2025-10-21 10:03:44,826 - INFO - Warning: Model contains large bounds
2025-10-21 10:03:44,826 - INFO -          Consider reformulating model or setting NumericFocus parameter
2025-10-21 10:03:44,826 - INFO -          to avoid numerical issues.
2025-10-21 10:03:44,839 - INFO - Presolve removed 4283 rows and 1964 columns
2025-10-21 10:03:44,840 - INFO - Presolve time: 0.01s
2025-10-21 10:03:44,840 - INFO - Presolved: 1320 rows, 1620 columns, 4514 nonzeros
2025-10-21 10:03:44,841 - INFO - Variable types: 0 continuous, 1620 integer (1095 binary)
2025-10-21 10:03:44,852 - INFO - 
2025-10-21 10:03:44,853 - INFO - Root relaxation: objective 9.373656e+06, 455 iterations, 0.00 seconds (0.00 work units)
2025-10-21 10:03:44,860 - INFO - 
2025-10-21 10:03:44,861 - INFO -     Nodes    |    Current Node    |     Objective Bounds      |     Work
2025-10-21 10:03:44,861 - INFO -  Expl Unexpl |  Obj  Depth IntInf | Incumbent    BestBd   Gap | It/Node Time
2025-10-21 10:03:44,861 - INFO - 
2025-10-21 10:03:44,861 - INFO -      0     0 9373656.00    0   10          - 9373656.00      -     -    0s
2025-10-21 10:03:44,886 - INFO - H    0     0                    1.406048e+07 9373656.00  33.3%     -    0s
2025-10-21 10:03:44,888 - INFO -      0     0 9373656.00    0    4 1.4060e+07 9373656.00  33.3%     -    0s
2025-10-21 10:03:44,904 - INFO - *    0     0               0    9373656.0000 9373656.00  0.00%     -    0s
2025-10-21 10:03:44,904 - INFO - 
2025-10-21 10:03:44,904 - INFO - Cutting planes:
2025-10-21 10:03:44,904 - INFO -   Cover: 14
2025-10-21 10:03:44,905 - INFO - 
2025-10-21 10:03:44,905 - INFO - Explored 1 nodes (619 simplex iterations) in 0.08 seconds (0.05 work units)
2025-10-21 10:03:44,905 - INFO - Thread count was 12 (of 96 available processors)
2025-10-21 10:03:44,905 - INFO - 
2025-10-21 10:03:44,905 - INFO - Solution count 2: 9.37366e+06 1.40605e+07 
2025-10-21 10:03:44,905 - INFO - 
2025-10-21 10:03:44,905 - INFO - Optimal solution found (tolerance 1.00e-04)
2025-10-21 10:03:44,905 - INFO - Best objective 9.373656000000e+06, best bound 9.373656000000e+06, gap 0.0000%
2025-10-21 10:03:44,915 - INFO - 规划前的显存GB：12.0
2025-10-21 10:03:44,915 - INFO - 规划后的显存GB：9.555042743682861
2025-10-21 10:03:44,915 - INFO - ✅ 最优策略：[1, 1, 1, 1, 1, 1, 1, 1, 1, 1, 1, 1, 1, 1, 1, 1]
2025-10-21 10:03:44,915 - INFO - 📌 checkpoint 的欧氏长度:, []
2025-10-21 10:03:44,915 - INFO - 📌 checkpoint 的余弦长度:, []
2025-10-21 10:03:44,916 - INFO - 💾 最终显存峰值：%.2f MB % 8692.373695373535
2025-10-21 10:03:44,916 - INFO - Epoch 2 completed in 2.958724 seconds
2025-10-21 10:03:44,916 - INFO - torch.cuda.max_memory_reserved() : 4.37890625
2025-10-21 10:03:46,951 - INFO - Epoch 3 completed in 2.034132 seconds
2025-10-21 10:03:46,951 - INFO - 
====================== [第1个 Epoch 收集统计数据] ======================
2025-10-21 10:03:46,951 - INFO - 
🔍 EUCLIDEAN modules:
2025-10-21 10:03:46,951 - INFO - [Shapelet  40] forward_avg=0.003971s over 12 calls | peak=343.57MB | final=0.00MB
2025-10-21 10:03:46,951 - INFO - [Shapelet  80] forward_avg=0.004123s over 12 calls | peak=601.19MB | final=0.00MB
2025-10-21 10:03:46,951 - INFO - [Shapelet 121] forward_avg=0.005144s over 12 calls | peak=791.72MB | final=0.00MB
2025-10-21 10:03:46,951 - INFO - [Shapelet 161] forward_avg=0.005410s over 12 calls | peak=905.43MB | final=0.00MB
2025-10-21 10:03:46,951 - INFO - [Shapelet 202] forward_avg=0.005694s over 12 calls | peak=946.48MB | final=0.00MB
2025-10-21 10:03:46,951 - INFO - [Shapelet 242] forward_avg=0.005292s over 12 calls | peak=915.59MB | final=0.00MB
2025-10-21 10:03:46,951 - INFO - [Shapelet 283] forward_avg=0.004499s over 12 calls | peak=810.62MB | final=0.00MB
2025-10-21 10:03:46,951 - INFO - [Shapelet 324] forward_avg=0.004322s over 12 calls | peak=628.61MB | final=0.00MB
2025-10-21 10:03:46,951 - INFO - 
🔍 COSINE modules:
2025-10-21 10:03:46,951 - INFO - [Shapelet  40] forward_avg=0.002024s over 12 calls | peak=220.75MB | final=0.00MB
2025-10-21 10:03:46,951 - INFO - [Shapelet  80] forward_avg=0.002029s over 12 calls | peak=390.83MB | final=0.00MB
2025-10-21 10:03:46,951 - INFO - [Shapelet 121] forward_avg=0.002600s over 12 calls | peak=515.69MB | final=0.00MB
2025-10-21 10:03:46,951 - INFO - [Shapelet 161] forward_avg=0.002928s over 12 calls | peak=589.82MB | final=0.00MB
2025-10-21 10:03:46,951 - INFO - [Shapelet 202] forward_avg=0.003117s over 12 calls | peak=615.21MB | final=0.00MB
2025-10-21 10:03:46,951 - INFO - [Shapelet 242] forward_avg=0.002937s over 12 calls | peak=592.28MB | final=0.00MB
2025-10-21 10:03:46,951 - INFO - [Shapelet 283] forward_avg=0.002332s over 12 calls | peak=520.11MB | final=0.00MB
2025-10-21 10:03:46,951 - INFO - [Shapelet 324] forward_avg=0.002155s over 12 calls | peak=396.44MB | final=0.00MB
2025-10-21 10:03:46,951 - INFO - 
🔍 CROSS modules:
2025-10-21 10:03:46,951 - INFO - [Shapelet  40] forward_avg=0.002885s over 12 calls
2025-10-21 10:03:46,952 - INFO - [Shapelet  80] forward_avg=0.000572s over 12 calls
2025-10-21 10:03:46,952 - INFO - [Shapelet 121] forward_avg=0.000645s over 12 calls
2025-10-21 10:03:46,952 - INFO - [Shapelet 161] forward_avg=0.000755s over 12 calls
2025-10-21 10:03:46,952 - INFO - [Shapelet 202] forward_avg=0.000856s over 12 calls
2025-10-21 10:03:46,952 - INFO - [Shapelet 242] forward_avg=0.000825s over 12 calls
2025-10-21 10:03:46,952 - INFO - [Shapelet 283] forward_avg=0.000886s over 12 calls
2025-10-21 10:03:46,952 - INFO - [Shapelet 324] forward_avg=0.000989s over 12 calls
2025-10-21 10:03:46,952 - INFO - 
💾 模型第一次反向传播阶段的显存峰值（所有模块中的最大值）: 8544.94 MB
2025-10-21 10:03:46,952 - INFO - 
💾 模型初始显存: 23.05 MB
2025-10-21 10:03:46,952 - INFO - =======================================================================

2025-10-21 10:03:46,952 - INFO - torch.cuda.max_memory_reserved() : 9.25
2025-10-21 10:03:48,929 - INFO - Epoch 4 completed in 1.976911 seconds
2025-10-21 10:03:48,930 - INFO - torch.cuda.max_memory_reserved() : 9.25
2025-10-21 10:03:50,950 - INFO - Epoch 5 completed in 2.019428 seconds
2025-10-21 10:03:50,950 - INFO - torch.cuda.max_memory_reserved() : 9.25
2025-10-21 10:03:52,963 - INFO - Epoch 6 completed in 2.012359 seconds
2025-10-21 10:03:52,963 - INFO - torch.cuda.max_memory_reserved() : 9.25
2025-10-21 10:03:55,027 - INFO - Epoch 7 completed in 2.064075 seconds
2025-10-21 10:03:55,028 - INFO - torch.cuda.max_memory_reserved() : 9.25
2025-10-21 10:03:57,031 - INFO - Epoch 8 completed in 2.001848 seconds
2025-10-21 10:03:57,031 - INFO - torch.cuda.max_memory_reserved() : 9.25
2025-10-21 10:03:59,014 - INFO - Epoch 9 completed in 1.982486 seconds
2025-10-21 10:03:59,014 - INFO - torch.cuda.max_memory_reserved() : 9.251953125
2025-10-21 10:04:01,064 - INFO - Epoch 10 completed in 2.049342 seconds
2025-10-21 10:04:02,084 - INFO - torch.cuda.max_memory_reserved() : 9.251953125
2025-10-21 10:04:02,084 - INFO - !!!采用策略后的几个epoch 平均时间:2.0175727009773254
2025-10-21 10:04:02,084 - INFO - 



